outputs/case_442.model.txt
improvement_plan_effective = False
capital_adequacy_ratio = 45
capital_level_4_measures_completed = True
financial_deterioration = False
accelerated_deterioration = False
net_worth_ratio = 3/2
net_worth = -10
improvement_plan_approved = False
illegal_acts_under_supervision = False
internal_operation_violation = False
internal_handling_established = True
internal_control_violation = False
professional_reinsurance_violation = False
capital_level_4_noncompliance = False
other_major_financial_impact = False
accelerated_deterioration_noncompliance = False
capital_level = 4
payment_exceed_limit = False
contract_or_major_commitment_made = False
violation_of_reinsurance_rules = False
internal_handling_violation = False
financial_deterioration_noncompliance = False
internal_control_executed = True
reinsurance_violation = False
penalty = False
internal_handling_executed = True
internal_control_established = True
internal_operation_established = True
internal_operation_executed = True
violation_of_professional_reinsurance_rules = False